/* Objective function */
min: +y_1+y_2+y_3+y_4+y_5+y_6+y_7+y_8+y_9+y_10+y_11+y_12;

/* Variable bounds */
c1: y_2 <= y_1;
c2: y_3 <= y_2;
c3: y_4 <= y_3;
c4: y_5 <= y_4;
c5: y_6 <= y_5;
c6: y_7 <= y_6;
c7: y_8 <= y_7;
c8: y_9 <= y_8;
c9: y_10 <= y_9;
c10: y_11 <= y_10;
c11: y_12 <= y_11;
/* 11 lines of the above type */
c12: x_1_1+x_1_2+x_1_3+x_1_4+x_1_5+x_1_6+x_1_7+x_1_8+x_1_9+x_1_10+x_1_11+x_1_12 = 1;
c13: x_2_1+x_2_2+x_2_3+x_2_4+x_2_5+x_2_6+x_2_7+x_2_8+x_2_9+x_2_10+x_2_11+x_2_12 = 1;
c14: x_3_1+x_3_2+x_3_3+x_3_4+x_3_5+x_3_6+x_3_7+x_3_8+x_3_9+x_3_10+x_3_11+x_3_12 = 1;
c15: x_4_1+x_4_2+x_4_3+x_4_4+x_4_5+x_4_6+x_4_7+x_4_8+x_4_9+x_4_10+x_4_11+x_4_12 = 1;
c16: x_5_1+x_5_2+x_5_3+x_5_4+x_5_5+x_5_6+x_5_7+x_5_8+x_5_9+x_5_10+x_5_11+x_5_12 = 1;
c17: x_6_1+x_6_2+x_6_3+x_6_4+x_6_5+x_6_6+x_6_7+x_6_8+x_6_9+x_6_10+x_6_11+x_6_12 = 1;
c18: x_7_1+x_7_2+x_7_3+x_7_4+x_7_5+x_7_6+x_7_7+x_7_8+x_7_9+x_7_10+x_7_11+x_7_12 = 1;
c19: x_8_1+x_8_2+x_8_3+x_8_4+x_8_5+x_8_6+x_8_7+x_8_8+x_8_9+x_8_10+x_8_11+x_8_12 = 1;
c20: x_9_1+x_9_2+x_9_3+x_9_4+x_9_5+x_9_6+x_9_7+x_9_8+x_9_9+x_9_10+x_9_11+x_9_12 = 1;
c21: x_10_1+x_10_2+x_10_3+x_10_4+x_10_5+x_10_6+x_10_7+x_10_8+x_10_9+x_10_10+x_10_11+x_10_12 = 1;
c22: x_11_1+x_11_2+x_11_3+x_11_4+x_11_5+x_11_6+x_11_7+x_11_8+x_11_9+x_11_10+x_11_11+x_11_12 = 1;
c23: x_12_1+x_12_2+x_12_3+x_12_4+x_12_5+x_12_6+x_12_7+x_12_8+x_12_9+x_12_10+x_12_11+x_12_12 = 1;
/* 12 lines of the above type */
c24: x_1_1 <= y_1;
c25: x_2_1 <= y_1;
c26: x_3_1 <= y_1;
c27: x_4_1 <= y_1;
c28: x_5_1 <= y_1;
c29: x_6_1 <= y_1;
c30: x_7_1 <= y_1;
c31: x_8_1 <= y_1;
c32: x_9_1 <= y_1;
c33: x_10_1 <= y_1;
c34: x_11_1 <= y_1;
c35: x_12_1 <= y_1;
c36: x_1_2 <= y_2;
c37: x_2_2 <= y_2;
c38: x_3_2 <= y_2;
c39: x_4_2 <= y_2;
c40: x_5_2 <= y_2;
c41: x_6_2 <= y_2;
c42: x_7_2 <= y_2;
c43: x_8_2 <= y_2;
c44: x_9_2 <= y_2;
c45: x_10_2 <= y_2;
c46: x_11_2 <= y_2;
c47: x_12_2 <= y_2;
c48: x_1_3 <= y_3;
c49: x_2_3 <= y_3;
c50: x_3_3 <= y_3;
c51: x_4_3 <= y_3;
c52: x_5_3 <= y_3;
c53: x_6_3 <= y_3;
c54: x_7_3 <= y_3;
c55: x_8_3 <= y_3;
c56: x_9_3 <= y_3;
c57: x_10_3 <= y_3;
c58: x_11_3 <= y_3;
c59: x_12_3 <= y_3;
c60: x_1_4 <= y_4;
c61: x_2_4 <= y_4;
c62: x_3_4 <= y_4;
c63: x_4_4 <= y_4;
c64: x_5_4 <= y_4;
c65: x_6_4 <= y_4;
c66: x_7_4 <= y_4;
c67: x_8_4 <= y_4;
c68: x_9_4 <= y_4;
c69: x_10_4 <= y_4;
c70: x_11_4 <= y_4;
c71: x_12_4 <= y_4;
c72: x_1_5 <= y_5;
c73: x_2_5 <= y_5;
c74: x_3_5 <= y_5;
c75: x_4_5 <= y_5;
c76: x_5_5 <= y_5;
c77: x_6_5 <= y_5;
c78: x_7_5 <= y_5;
c79: x_8_5 <= y_5;
c80: x_9_5 <= y_5;
c81: x_10_5 <= y_5;
c82: x_11_5 <= y_5;
c83: x_12_5 <= y_5;
c84: x_1_6 <= y_6;
c85: x_2_6 <= y_6;
c86: x_3_6 <= y_6;
c87: x_4_6 <= y_6;
c88: x_5_6 <= y_6;
c89: x_6_6 <= y_6;
c90: x_7_6 <= y_6;
c91: x_8_6 <= y_6;
c92: x_9_6 <= y_6;
c93: x_10_6 <= y_6;
c94: x_11_6 <= y_6;
c95: x_12_6 <= y_6;
c96: x_1_7 <= y_7;
c97: x_2_7 <= y_7;
c98: x_3_7 <= y_7;
c99: x_4_7 <= y_7;
c100: x_5_7 <= y_7;
c101: x_6_7 <= y_7;
c102: x_7_7 <= y_7;
c103: x_8_7 <= y_7;
c104: x_9_7 <= y_7;
c105: x_10_7 <= y_7;
c106: x_11_7 <= y_7;
c107: x_12_7 <= y_7;
c108: x_1_8 <= y_8;
c109: x_2_8 <= y_8;
c110: x_3_8 <= y_8;
c111: x_4_8 <= y_8;
c112: x_5_8 <= y_8;
c113: x_6_8 <= y_8;
c114: x_7_8 <= y_8;
c115: x_8_8 <= y_8;
c116: x_9_8 <= y_8;
c117: x_10_8 <= y_8;
c118: x_11_8 <= y_8;
c119: x_12_8 <= y_8;
c120: x_1_9 <= y_9;
c121: x_2_9 <= y_9;
c122: x_3_9 <= y_9;
c123: x_4_9 <= y_9;
c124: x_5_9 <= y_9;
c125: x_6_9 <= y_9;
c126: x_7_9 <= y_9;
c127: x_8_9 <= y_9;
c128: x_9_9 <= y_9;
c129: x_10_9 <= y_9;
c130: x_11_9 <= y_9;
c131: x_12_9 <= y_9;
c132: x_1_10 <= y_10;
c133: x_2_10 <= y_10;
c134: x_3_10 <= y_10;
c135: x_4_10 <= y_10;
c136: x_5_10 <= y_10;
c137: x_6_10 <= y_10;
c138: x_7_10 <= y_10;
c139: x_8_10 <= y_10;
c140: x_9_10 <= y_10;
c141: x_10_10 <= y_10;
c142: x_11_10 <= y_10;
c143: x_12_10 <= y_10;
c144: x_1_11 <= y_11;
c145: x_2_11 <= y_11;
c146: x_3_11 <= y_11;
c147: x_4_11 <= y_11;
c148: x_5_11 <= y_11;
c149: x_6_11 <= y_11;
c150: x_7_11 <= y_11;
c151: x_8_11 <= y_11;
c152: x_9_11 <= y_11;
c153: x_10_11 <= y_11;
c154: x_11_11 <= y_11;
c155: x_12_11 <= y_11;
c156: x_1_12 <= y_12;
c157: x_2_12 <= y_12;
c158: x_3_12 <= y_12;
c159: x_4_12 <= y_12;
c160: x_5_12 <= y_12;
c161: x_6_12 <= y_12;
c162: x_7_12 <= y_12;
c163: x_8_12 <= y_12;
c164: x_9_12 <= y_12;
c165: x_10_12 <= y_12;
c166: x_11_12 <= y_12;
c167: x_12_12 <= y_12;
/* 144 lines of the above type */
c168: x_1_1+x_2_1 <= 1;
c169: x_1_2+x_2_2 <= 1;
c170: x_1_3+x_2_3 <= 1;
c171: x_1_4+x_2_4 <= 1;
c172: x_1_5+x_2_5 <= 1;
c173: x_1_6+x_2_6 <= 1;
c174: x_1_7+x_2_7 <= 1;
c175: x_1_8+x_2_8 <= 1;
c176: x_1_9+x_2_9 <= 1;
c177: x_1_10+x_2_10 <= 1;
c178: x_1_11+x_2_11 <= 1;
c179: x_1_12+x_2_12 <= 1;
c180: x_1_1+x_8_1 <= 1;
c181: x_1_2+x_8_2 <= 1;
c182: x_1_3+x_8_3 <= 1;
c183: x_1_4+x_8_4 <= 1;
c184: x_1_5+x_8_5 <= 1;
c185: x_1_6+x_8_6 <= 1;
c186: x_1_7+x_8_7 <= 1;
c187: x_1_8+x_8_8 <= 1;
c188: x_1_9+x_8_9 <= 1;
c189: x_1_10+x_8_10 <= 1;
c190: x_1_11+x_8_11 <= 1;
c191: x_1_12+x_8_12 <= 1;
c192: x_1_1+x_12_1 <= 1;
c193: x_1_2+x_12_2 <= 1;
c194: x_1_3+x_12_3 <= 1;
c195: x_1_4+x_12_4 <= 1;
c196: x_1_5+x_12_5 <= 1;
c197: x_1_6+x_12_6 <= 1;
c198: x_1_7+x_12_7 <= 1;
c199: x_1_8+x_12_8 <= 1;
c200: x_1_9+x_12_9 <= 1;
c201: x_1_10+x_12_10 <= 1;
c202: x_1_11+x_12_11 <= 1;
c203: x_1_12+x_12_12 <= 1;
c204: x_2_1+x_3_1 <= 1;
c205: x_2_2+x_3_2 <= 1;
c206: x_2_3+x_3_3 <= 1;
c207: x_2_4+x_3_4 <= 1;
c208: x_2_5+x_3_5 <= 1;
c209: x_2_6+x_3_6 <= 1;
c210: x_2_7+x_3_7 <= 1;
c211: x_2_8+x_3_8 <= 1;
c212: x_2_9+x_3_9 <= 1;
c213: x_2_10+x_3_10 <= 1;
c214: x_2_11+x_3_11 <= 1;
c215: x_2_12+x_3_12 <= 1;
c216: x_2_1+x_5_1 <= 1;
c217: x_2_2+x_5_2 <= 1;
c218: x_2_3+x_5_3 <= 1;
c219: x_2_4+x_5_4 <= 1;
c220: x_2_5+x_5_5 <= 1;
c221: x_2_6+x_5_6 <= 1;
c222: x_2_7+x_5_7 <= 1;
c223: x_2_8+x_5_8 <= 1;
c224: x_2_9+x_5_9 <= 1;
c225: x_2_10+x_5_10 <= 1;
c226: x_2_11+x_5_11 <= 1;
c227: x_2_12+x_5_12 <= 1;
c228: x_2_1+x_7_1 <= 1;
c229: x_2_2+x_7_2 <= 1;
c230: x_2_3+x_7_3 <= 1;
c231: x_2_4+x_7_4 <= 1;
c232: x_2_5+x_7_5 <= 1;
c233: x_2_6+x_7_6 <= 1;
c234: x_2_7+x_7_7 <= 1;
c235: x_2_8+x_7_8 <= 1;
c236: x_2_9+x_7_9 <= 1;
c237: x_2_10+x_7_10 <= 1;
c238: x_2_11+x_7_11 <= 1;
c239: x_2_12+x_7_12 <= 1;
c240: x_2_1+x_9_1 <= 1;
c241: x_2_2+x_9_2 <= 1;
c242: x_2_3+x_9_3 <= 1;
c243: x_2_4+x_9_4 <= 1;
c244: x_2_5+x_9_5 <= 1;
c245: x_2_6+x_9_6 <= 1;
c246: x_2_7+x_9_7 <= 1;
c247: x_2_8+x_9_8 <= 1;
c248: x_2_9+x_9_9 <= 1;
c249: x_2_10+x_9_10 <= 1;
c250: x_2_11+x_9_11 <= 1;
c251: x_2_12+x_9_12 <= 1;
c252: x_3_1+x_4_1 <= 1;
c253: x_3_2+x_4_2 <= 1;
c254: x_3_3+x_4_3 <= 1;
c255: x_3_4+x_4_4 <= 1;
c256: x_3_5+x_4_5 <= 1;
c257: x_3_6+x_4_6 <= 1;
c258: x_3_7+x_4_7 <= 1;
c259: x_3_8+x_4_8 <= 1;
c260: x_3_9+x_4_9 <= 1;
c261: x_3_10+x_4_10 <= 1;
c262: x_3_11+x_4_11 <= 1;
c263: x_3_12+x_4_12 <= 1;
c264: x_3_1+x_10_1 <= 1;
c265: x_3_2+x_10_2 <= 1;
c266: x_3_3+x_10_3 <= 1;
c267: x_3_4+x_10_4 <= 1;
c268: x_3_5+x_10_5 <= 1;
c269: x_3_6+x_10_6 <= 1;
c270: x_3_7+x_10_7 <= 1;
c271: x_3_8+x_10_8 <= 1;
c272: x_3_9+x_10_9 <= 1;
c273: x_3_10+x_10_10 <= 1;
c274: x_3_11+x_10_11 <= 1;
c275: x_3_12+x_10_12 <= 1;
c276: x_4_1+x_5_1 <= 1;
c277: x_4_2+x_5_2 <= 1;
c278: x_4_3+x_5_3 <= 1;
c279: x_4_4+x_5_4 <= 1;
c280: x_4_5+x_5_5 <= 1;
c281: x_4_6+x_5_6 <= 1;
c282: x_4_7+x_5_7 <= 1;
c283: x_4_8+x_5_8 <= 1;
c284: x_4_9+x_5_9 <= 1;
c285: x_4_10+x_5_10 <= 1;
c286: x_4_11+x_5_11 <= 1;
c287: x_4_12+x_5_12 <= 1;
c288: x_4_1+x_7_1 <= 1;
c289: x_4_2+x_7_2 <= 1;
c290: x_4_3+x_7_3 <= 1;
c291: x_4_4+x_7_4 <= 1;
c292: x_4_5+x_7_5 <= 1;
c293: x_4_6+x_7_6 <= 1;
c294: x_4_7+x_7_7 <= 1;
c295: x_4_8+x_7_8 <= 1;
c296: x_4_9+x_7_9 <= 1;
c297: x_4_10+x_7_10 <= 1;
c298: x_4_11+x_7_11 <= 1;
c299: x_4_12+x_7_12 <= 1;
c300: x_5_1+x_6_1 <= 1;
c301: x_5_2+x_6_2 <= 1;
c302: x_5_3+x_6_3 <= 1;
c303: x_5_4+x_6_4 <= 1;
c304: x_5_5+x_6_5 <= 1;
c305: x_5_6+x_6_6 <= 1;
c306: x_5_7+x_6_7 <= 1;
c307: x_5_8+x_6_8 <= 1;
c308: x_5_9+x_6_9 <= 1;
c309: x_5_10+x_6_10 <= 1;
c310: x_5_11+x_6_11 <= 1;
c311: x_5_12+x_6_12 <= 1;
c312: x_5_1+x_8_1 <= 1;
c313: x_5_2+x_8_2 <= 1;
c314: x_5_3+x_8_3 <= 1;
c315: x_5_4+x_8_4 <= 1;
c316: x_5_5+x_8_5 <= 1;
c317: x_5_6+x_8_6 <= 1;
c318: x_5_7+x_8_7 <= 1;
c319: x_5_8+x_8_8 <= 1;
c320: x_5_9+x_8_9 <= 1;
c321: x_5_10+x_8_10 <= 1;
c322: x_5_11+x_8_11 <= 1;
c323: x_5_12+x_8_12 <= 1;
c324: x_6_1+x_7_1 <= 1;
c325: x_6_2+x_7_2 <= 1;
c326: x_6_3+x_7_3 <= 1;
c327: x_6_4+x_7_4 <= 1;
c328: x_6_5+x_7_5 <= 1;
c329: x_6_6+x_7_6 <= 1;
c330: x_6_7+x_7_7 <= 1;
c331: x_6_8+x_7_8 <= 1;
c332: x_6_9+x_7_9 <= 1;
c333: x_6_10+x_7_10 <= 1;
c334: x_6_11+x_7_11 <= 1;
c335: x_6_12+x_7_12 <= 1;
c336: x_7_1+x_8_1 <= 1;
c337: x_7_2+x_8_2 <= 1;
c338: x_7_3+x_8_3 <= 1;
c339: x_7_4+x_8_4 <= 1;
c340: x_7_5+x_8_5 <= 1;
c341: x_7_6+x_8_6 <= 1;
c342: x_7_7+x_8_7 <= 1;
c343: x_7_8+x_8_8 <= 1;
c344: x_7_9+x_8_9 <= 1;
c345: x_7_10+x_8_10 <= 1;
c346: x_7_11+x_8_11 <= 1;
c347: x_7_12+x_8_12 <= 1;
c348: x_7_1+x_10_1 <= 1;
c349: x_7_2+x_10_2 <= 1;
c350: x_7_3+x_10_3 <= 1;
c351: x_7_4+x_10_4 <= 1;
c352: x_7_5+x_10_5 <= 1;
c353: x_7_6+x_10_6 <= 1;
c354: x_7_7+x_10_7 <= 1;
c355: x_7_8+x_10_8 <= 1;
c356: x_7_9+x_10_9 <= 1;
c357: x_7_10+x_10_10 <= 1;
c358: x_7_11+x_10_11 <= 1;
c359: x_7_12+x_10_12 <= 1;
c360: x_7_1+x_12_1 <= 1;
c361: x_7_2+x_12_2 <= 1;
c362: x_7_3+x_12_3 <= 1;
c363: x_7_4+x_12_4 <= 1;
c364: x_7_5+x_12_5 <= 1;
c365: x_7_6+x_12_6 <= 1;
c366: x_7_7+x_12_7 <= 1;
c367: x_7_8+x_12_8 <= 1;
c368: x_7_9+x_12_9 <= 1;
c369: x_7_10+x_12_10 <= 1;
c370: x_7_11+x_12_11 <= 1;
c371: x_7_12+x_12_12 <= 1;
c372: x_8_1+x_9_1 <= 1;
c373: x_8_2+x_9_2 <= 1;
c374: x_8_3+x_9_3 <= 1;
c375: x_8_4+x_9_4 <= 1;
c376: x_8_5+x_9_5 <= 1;
c377: x_8_6+x_9_6 <= 1;
c378: x_8_7+x_9_7 <= 1;
c379: x_8_8+x_9_8 <= 1;
c380: x_8_9+x_9_9 <= 1;
c381: x_8_10+x_9_10 <= 1;
c382: x_8_11+x_9_11 <= 1;
c383: x_8_12+x_9_12 <= 1;
c384: x_9_1+x_10_1 <= 1;
c385: x_9_2+x_10_2 <= 1;
c386: x_9_3+x_10_3 <= 1;
c387: x_9_4+x_10_4 <= 1;
c388: x_9_5+x_10_5 <= 1;
c389: x_9_6+x_10_6 <= 1;
c390: x_9_7+x_10_7 <= 1;
c391: x_9_8+x_10_8 <= 1;
c392: x_9_9+x_10_9 <= 1;
c393: x_9_10+x_10_10 <= 1;
c394: x_9_11+x_10_11 <= 1;
c395: x_9_12+x_10_12 <= 1;
c396: x_10_1+x_11_1 <= 1;
c397: x_10_2+x_11_2 <= 1;
c398: x_10_3+x_11_3 <= 1;
c399: x_10_4+x_11_4 <= 1;
c400: x_10_5+x_11_5 <= 1;
c401: x_10_6+x_11_6 <= 1;
c402: x_10_7+x_11_7 <= 1;
c403: x_10_8+x_11_8 <= 1;
c404: x_10_9+x_11_9 <= 1;
c405: x_10_10+x_11_10 <= 1;
c406: x_10_11+x_11_11 <= 1;
c407: x_10_12+x_11_12 <= 1;
c408: x_11_1+x_12_1 <= 1;
c409: x_11_2+x_12_2 <= 1;
c410: x_11_3+x_12_3 <= 1;
c411: x_11_4+x_12_4 <= 1;
c412: x_11_5+x_12_5 <= 1;
c413: x_11_6+x_12_6 <= 1;
c414: x_11_7+x_12_7 <= 1;
c415: x_11_8+x_12_8 <= 1;
c416: x_11_9+x_12_9 <= 1;
c417: x_11_10+x_12_10 <= 1;
c418: x_11_11+x_12_11 <= 1;
c419: x_11_12+x_12_12 <= 1;
/* 252 lines of the above type */


/* Variable definitions */
bin y_1,y_2,y_3,y_4,y_5,y_6,y_7,y_8,y_9,y_10,y_11,y_12,x_1_1,x_1_2,x_1_3,x_1_4,x_1_5,x_1_6,x_1_7,x_1_8,x_1_9,x_1_10,x_1_11,x_1_12,x_2_1,x_2_2,x_2_3,x_2_4,x_2_5,x_2_6,x_2_7,x_2_8,x_2_9,x_2_10,x_2_11,x_2_12,x_3_1,x_3_2,x_3_3,x_3_4,x_3_5,x_3_6,x_3_7,x_3_8,x_3_9,x_3_10,x_3_11,x_3_12,x_4_1,x_4_2,x_4_3,x_4_4,x_4_5,x_4_6,x_4_7,x_4_8,x_4_9,x_4_10,x_4_11,x_4_12,x_5_1,x_5_2,x_5_3,x_5_4,x_5_5,x_5_6,x_5_7,x_5_8,x_5_9,x_5_10,x_5_11,x_5_12,x_6_1,x_6_2,x_6_3,x_6_4,x_6_5,x_6_6,x_6_7,x_6_8,x_6_9,x_6_10,x_6_11,x_6_12,x_7_1,x_7_2,x_7_3,x_7_4,x_7_5,x_7_6,x_7_7,x_7_8,x_7_9,x_7_10,x_7_11,x_7_12,x_8_1,x_8_2,x_8_3,x_8_4,x_8_5,x_8_6,x_8_7,x_8_8,x_8_9,x_8_10,x_8_11,x_8_12,x_9_1,x_9_2,x_9_3,x_9_4,x_9_5,x_9_6,x_9_7,x_9_8,x_9_9,x_9_10,x_9_11,x_9_12,x_10_1,x_10_2,x_10_3,x_10_4,x_10_5,x_10_6,x_10_7,x_10_8,x_10_9,x_10_10,x_10_11,x_10_12,x_11_1,x_11_2,x_11_3,x_11_4,x_11_5,x_11_6,x_11_7,x_11_8,x_11_9,x_11_10,x_11_11,x_11_12,x_12_1,x_12_2,x_12_3,x_12_4,x_12_5,x_12_6,x_12_7,x_12_8,x_12_9,x_12_10,x_12_11,x_12_12;

